rc101_3
0 95 70 57 14 15 16 17 19 52 22 20 21 18 92 64 102 80 63 79 91 82 30 28 26 53 23 24 54 25 27 29 2 78 84 12 13 51 9 50 10 8 6 7 11 65 83 58 93 60 105 75 48 45 41 40 42 43 44 49 47 46 1 66 77 76 32 31 33 34 36 35 0